<number of tasks>
100

<cycle time>
1000

<order strength>
0.6


<task times>
1 278
2 311
3 414
4 600
5 391
6 830
7 479
8 556
9 378
10 615
11 657
12 417
13 620
14 546
15 511
16 545
17 245
18 392
19 683
20 315
21 361
22 545
23 411
24 636
25 547
26 379
27 624
28 383
29 589
30 652
31 566
32 484
33 548
34 397
35 584
36 789
37 593
38 295
39 445
40 421
41 461
42 446
43 446
44 530
45 414
46 602
47 415
48 684
49 695
50 609
51 262
52 324
53 411
54 591
55 419
56 502
57 408
58 550
59 488
60 581
61 456
62 410
63 477
64 386
65 485
66 346
67 606
68 311
69 445
70 430
71 652
72 328
73 512
74 358
75 428
76 542
77 781
78 481
79 417
80 579
81 447
82 329
83 699
84 901
85 700
86 524
87 458
88 226
89 451
90 582
91 566
92 457
93 524
94 389
95 451
96 429
97 426
98 580
99 355
100 452

<precedence relations>
1,40
2,40
3,22
4,22
5,22
6,7
6,8
6,9
6,10
6,11
6,12
7,74
8,74
9,22
10,51
11,51
12,13
12,14
12,15
12,16
12,17
12,18
12,19
12,20
13,74
14,22
15,22
16,22
17,51
18,51
19,51
20,21
20,23
20,24
20,25
21,40
22,29
22,30
22,31
22,32
22,33
22,34
22,35
22,36
22,37
22,40
23,51
24,28
24,38
24,42
25,26
25,27
25,42
26,40
27,40
28,40
29,41
30,70
31,67
32,39
32,71
33,42
34,41
35,39
35,43
35,48
36,61
36,64
37,68
38,43
38,70
39,74
40,44
40,45
40,46
40,47
40,49
41,51
42,48
42,50
42,64
43,71
43,72
44,51
45,51
46,51
46,52
47,68
47,69
47,71
48,51
49,51
50,53
50,72
51,54
51,55
51,56
51,57
51,58
51,59
52,60
53,90
53,91
54,61
55,72
57,63
57,75
58,67
59,62
59,73
59,86
60,64
60,65
61,74
62,87
64,66
65,67
66,68
66,69
67,70
67,71
68,74
69,72
70,85
70,88
71,73
72,74
73,75
73,76
73,77
74,78
74,79
74,80
74,81
74,82
74,83
74,84
74,85
74,86
75,87
78,87
79,88
80,87
81,87
82,89
83,87
83,90
84,90
84,91
85,87
86,87
86,90
87,92
87,93
87,94
87,95
87,96
87,97
87,98
87,99
87,100

<end>
